*SPEF "ieee 1481-1999"
*DESIGN "cal_chain"
*DATE "08:54:39 Wednesday September 16, 2026"
*VENDOR "The OpenROAD Project"
*PROGRAM "OpenROAD"
*VERSION "26Q3-2075-g18e98f9e44"
*DESIGN_FLOW "NAME_SCOPE LOCAL" "PIN_CAP NONE"
*DIVIDER /
*DELIMITER :
*BUS_DELIMITER []
*T_UNIT 1 NS
*C_UNIT 1 PF
*R_UNIT 1 OHM
*L_UNIT 1 HENRY

*NAME_MAP
*1 A
*2 Y
*3 n1
*4 u1
*5 u2

*PORTS
A I
Y O

*D_NET *1 0.00353422
*CONN
*P A I
*I *4:A I *D sky130_fd_sc_hd__inv_2
*CAP
1 A 0.000702673
2 *4:A 0.000702673
3 *4:A Y 0.00123352
4 *4:A *5:A 0.000895354
*RES
1 A *4:A 23.7387 
*END

*D_NET *2 0.0021838
*CONN
*P Y O
*I *5:Y O *D sky130_fd_sc_hd__inv_2
*CAP
1 Y 0.000423304
2 *5:Y 0.000423304
3 Y *5:A 0.000103664
4 *4:A Y 0.00123352
*RES
1 *5:Y Y 20.8513 
*END

*D_NET *3 0.00106548
*CONN
*I *5:A I *D sky130_fd_sc_hd__inv_2
*I *4:Y O *D sky130_fd_sc_hd__inv_2
*CAP
1 *5:A 3.3229e-05
2 *4:Y 3.3229e-05
3 Y *5:A 0.000103664
4 *4:A *5:A 0.000895354
*RES
1 *4:Y *5:A 19.709 
*END
